0 0
3 0
5 1
-1 -1
4 3
-1 -1
-1 -1
-1 -1
2 1
-1 -1
4 1
1 0
10 0
1 3
-1 -1
5 3
-1 -1
1 1
2 0
8 0
5 0
1 4
9 0
6 0
8 4
11 0
-1 -1
-1 -1
13 0
7 0
3 1
12 0
4 0
-1 -1
2 3
17 0
-1 -1
-1 -1
7 4
14 0
20 0
27 0
18 0
-1 -1
15 0
-1 -1
-1 -1
8 1
16 0
19 0
0 6
4 4
21 0
6 1
11 7
22 0
9 1
-1 -1
23 0
-1 -1
10 1
24 0
13 4
-1 -1
25 0
26 0
3 6
-1 -1
28 0
29 0
30 0
0 4
31 0
-1 -1
2 6
32 0
33 0
-1 -1
34 0
5 2
-1 -1
-1 -1
35 0
7 1
36 0
37 0
-1 -1
5 4
38 0
14 1
39 0
40 0
41 0
-1 -1
42 0
-1 -1
-1 -1
11 1
-1 -1
43 0
-1 -1
-1 -1
44 0
9 6
29 6
9 3
12 1
-1 -1
-1 -1
16 1
-1 -1
13 1
15 1
22 4
11 4
2 4
3 7
3 2
1 7
18 1
8 3
19 1
10 2
-1 -1
3 4
12 3
-1 -1
-1 -1
-1 -1
17 1
-1 -1
20 1
21 1
15 3
22 7
13 6
-1 -1
5 6
22 1
0 1
-1 -1
10 3
6 4
10 4
21 3
23 1
-1 -1
-1 -1
-1 -1
14 4
15 4
24 1
26 1
7 7
-1 -1
25 1
27 1
28 1
31 1
30 1
32 1
-1 -1
29 1
33 1
-1 -1
36 1
-1 -1
-1 -1
-1 -1
1 6
-1 -1
23 3
35 1
14 6
16 4
-1 -1
16 7
17 6
18 7
34 1
24 3
22 3
37 1
-1 -1
18 6
38 1
6 7
-1 -1
-1 -1
39 1
40 1
0 7
41 1
-1 -1
-1 -1
42 1
-1 -1
43 1
14 3
7 2
44 1
9 4
9 2
-1 -1
26 6
-1 -1
-1 -1
8 6
-1 -1
7 3
21 4
-1 -1
20 7
-1 -1
-1 -1
32 4
-1 -1
17 4
2 7
20 3
28 7
24 4
32 2
39 3
-1 -1
0 2
17 3
-1 -1
15 2
26 4
12 4
-1 -1
25 4
-1 -1
-1 -1
21 7
-1 -1
18 3
5 7
23 4
-1 -1
2 2
4 6
27 3
6 2
25 3
-1 -1
26 3
14 2
34 6
30 2
26 2
17 7
14 7
-1 -1
37 2
-1 -1
8 2
31 2
6 3
13 2
27 4
4 2
25 2
-1 -1
35 2
-1 -1
-1 -1
28 2
12 2
31 4
-1 -1
16 2
19 3
-1 -1
38 2
29 3
-1 -1
41 2
41 3
31 3
29 2
-1 -1
7 6
-1 -1
19 2
-1 -1
4 7
43 6
10 6
-1 -1
17 2
40 2
-1 -1
-1 -1
23 2
-1 -1
19 4
-1 -1
-1 -1
-1 -1
37 3
30 7
-1 -1
39 4
-1 -1
-1 -1
35 6
-1 -1
-1 -1
-1 -1
27 2
39 2
42 6
-1 -1
28 6
-1 -1
18 4
1 2
24 2
40 3
-1 -1
20 2
42 4
-1 -1
33 2
-1 -1
34 3
36 2
34 2
-1 -1
43 2
-1 -1
-1 -1
43 4
35 4
-1 -1
36 6
37 4
-1 -1
6 6
-1 -1
-1 -1
38 3
42 3
11 3
-1 -1
33 4
-1 -1
12 5
-1 -1
34 4
-1 -1
37 6
41 4
16 3
38 4
24 7
23 5
44 2
28 3
-1 -1
-1 -1
-1 -1
34 7
35 3
-1 -1
44 3
-1 -1
-1 -1
29 4
13 3
-1 -1
-1 -1
-1 -1
-1 -1
-1 -1
-1 -1
-1 -1
-1 -1
-1 -1
29 7
32 3
40 6
-1 -1
-1 -1
-1 -1
12 6
-1 -1
14 5
28 4
-1 -1
43 3
-1 -1
24 6
30 3
-1 -1
31 6
36 4
-1 -1
